p cnf 20 20
-3 -2 14 0
-13 -17 3 0
10 -4 -13 0
1 4 -18 0
-3 -8 -19 0
4 16 9 0
1 -10 -4 0
19 14 -17 0
-16 6 -9 0
8 -11 -2 0
5 20 -19 0
18 6 -5 0
-2 4 -6 0
-4 -13 10 0
5 -2 7 0
2 -17 3 0
-7 -15 5 0
-16 19 14 0
16 -4 14 0
7 -16 6 0
